(set-logic QF_LIA)
(set-info :ran/ran2.smt2)
(set-info :smt-lib-version 2.0)
(declare-fun x1 () Int)
(declare-fun x2 () Int)
(declare-fun x3 () Int)
(declare-fun x4 () Int)
(assert (<= (+ (* 3 x1) (* (- 2) x2) (* (- 8) x3) (* (- 10) x4) ) (- 26)))
(assert (<= (+ (* 5 x1) (* 0 x2) (* (- 6) x3) (* 9 x4) ) (- 22)))
(assert (<= (+ (* (- 7) x1) (* 7 x2) (* (- 9) x3) (* (- 9) x4) ) (- 7)))
(assert (<= (+ (* (- 2) x1) (* 4 x2) (* 0 x3) (* 5 x4) ) 42))
(assert (<= (+ (* (- 4) x1) (* 3 x2) (* 9 x3) (* (- 1) x4) ) 68))
(assert (<= (+ (* (- 8) x1) (* (- 2) x2) (* (- 10) x3) (* 6 x4) ) (- 36)))
(assert (<= (+ (* 8 x1) (* (- 3) x2) (* (- 8) x3) (* 10 x4) ) 53))
(assert (<= (+ (* (- 7) x1) (* 2 x2) (* 7 x3) (* (- 3) x4) ) (- 30)))
(assert (<= (+ (* 1 x1) (* 0 x2) (* 0 x3) (* 0 x4) ) 70))
(assert (<= (+ (* (- 1) x1) (* 0 x2) (* 0 x3) (* 0 x4) ) 70))
(assert (<= (+ (* 0 x1) (* 1 x2) (* 0 x3) (* 0 x4) ) 70))
(assert (<= (+ (* 0 x1) (* (- 1) x2) (* 0 x3) (* 0 x4) ) 70))
(assert (<= (+ (* 0 x1) (* 0 x2) (* 1 x3) (* 0 x4) ) 70))
(assert (<= (+ (* 0 x1) (* 0 x2) (* (- 1) x3) (* 0 x4) ) 70))
(assert (<= (+ (* 0 x1) (* 0 x2) (* 0 x3) (* 1 x4) ) 70))
(assert (<= (+ (* 0 x1) (* 0 x2) (* 0 x3) (* (- 1) x4) ) 70))
